 Code  1931
 Dimension, Fixed Cost
   100        3000
 Facility, Client, Transportation Cost
     1       10           1
     1       13           1
     1       17           3
     1       26           3
     1       31           2
     1       51           1
     1       54           4
     1       57           1
     1       60           1
     1       97           3
     2       14           3
     2       22           1
     2       23           4
     2       46           1
     2       53           1
     2       63           1
     2       65           1
     2       87           3
     2       92           4
     2       96           1
     3        2           2
     3        8           2
     3       12           4
     3       28           1
     3       37           1
     3       55           0
     3       56           1
     3       60           4
     3       77           2
     3       99           4
     4       10           3
     4       15           4
     4       18           3
     4       19           0
     4       20           2
     4       25           0
     4       38           0
     4       79           4
     4       85           4
     4       89           1
     5       16           3
     5       27           3
     5       44           2
     5       50           0
     5       52           1
     5       78           0
     5       90           4
     5       91           4
     5       97           1
     5       98           3
     6        7           4
     6        8           3
     6       11           1
     6       13           1
     6       28           4
     6       35           3
     6       36           1
     6       77           3
     6       81           0
     6       82           2
     7       18           3
     7       21           0
     7       27           1
     7       28           0
     7       33           0
     7       36           0
     7       41           4
     7       47           0
     7       51           4
     7       52           3
     8        5           1
     8        9           3
     8       15           4
     8       32           4
     8       46           2
     8       53           4
     8       68           3
     8       85           4
     8       88           0
     8       89           4
     9        8           0
     9       12           1
     9       18           0
     9       23           2
     9       41           2
     9       51           2
     9       77           1
     9       80           0
     9       92           2
     9       94           0
    10       16           1
    10       22           3
    10       44           1
    10       46           4
    10       68           0
    10       75           0
    10       77           0
    10       86           4
    10       88           4
    10       98           2
    11        2           4
    11       12           1
    11       20           4
    11       32           3
    11       57           4
    11       60           2
    11       63           0
    11       88           2
    11       98           1
    11      100           4
    12       11           1
    12       17           0
    12       22           2
    12       65           1
    12       74           4
    12       78           0
    12       82           0
    12       88           0
    12       91           2
    12      100           2
    13        9           2
    13       13           0
    13       18           0
    13       21           1
    13       23           0
    13       38           3
    13       51           3
    13       53           3
    13       60           0
    13       87           4
    14       14           3
    14       15           0
    14       18           1
    14       33           4
    14       34           1
    14       46           1
    14       54           2
    14       67           4
    14       90           2
    14       94           4
    15        1           3
    15       15           2
    15       16           2
    15       30           3
    15       37           2
    15       55           2
    15       60           3
    15       65           1
    15       81           1
    15       96           4
    16        4           4
    16        7           3
    16       15           4
    16       27           2
    16       36           3
    16       41           1
    16       48           2
    16       85           1
    16       89           3
    16       91           4
    17        6           1
    17       30           0
    17       35           0
    17       41           0
    17       58           4
    17       66           2
    17       84           3
    17       88           2
    17       99           2
    17      100           2
    18       14           3
    18       26           3
    18       33           2
    18       46           3
    18       58           4
    18       62           4
    18       81           2
    18       87           4
    18       91           1
    18       96           0
    19        1           3
    19        5           1
    19        9           0
    19       10           2
    19       21           3
    19       26           2
    19       27           0
    19       36           3
    19       69           1
    19       84           3
    20       18           4
    20       24           3
    20       31           0
    20       35           3
    20       36           0
    20       49           4
    20       60           4
    20       66           0
    20       83           4
    20       92           1
    21        4           2
    21       22           2
    21       38           3
    21       46           0
    21       50           3
    21       59           1
    21       64           1
    21       68           3
    21       81           0
    21       99           0
    22        5           0
    22       26           4
    22       49           2
    22       55           3
    22       60           2
    22       61           0
    22       62           1
    22       71           2
    22       82           0
    22       99           1
    23        5           3
    23       11           2
    23       25           4
    23       26           3
    23       42           4
    23       58           4
    23       65           0
    23       77           1
    23       87           4
    23       91           4
    24        6           3
    24       10           4
    24       14           1
    24       33           2
    24       34           4
    24       43           4
    24       59           0
    24       69           4
    24       91           3
    24       93           1
    25        1           4
    25       22           2
    25       23           1
    25       30           0
    25       59           3
    25       62           0
    25       87           4
    25       96           4
    25       97           3
    25      100           1
    26        4           0
    26       18           3
    26       22           3
    26       25           0
    26       29           4
    26       43           4
    26       74           3
    26       83           1
    26       96           0
    26      100           3
    27        6           1
    27       15           4
    27       26           2
    27       29           4
    27       33           4
    27       39           2
    27       61           2
    27       75           3
    27       86           1
    27       93           1
    28        6           0
    28       17           3
    28       26           3
    28       48           1
    28       53           2
    28       73           3
    28       75           2
    28       79           2
    28       87           3
    28       90           4
    29        5           4
    29       13           4
    29       14           1
    29       59           1
    29       70           3
    29       80           2
    29       84           2
    29       95           0
    29       96           4
    29      100           2
    30       10           3
    30       15           3
    30       17           3
    30       18           1
    30       25           3
    30       29           4
    30       58           0
    30       59           3
    30       64           4
    30       81           3
    31        5           0
    31       28           0
    31       36           2
    31       41           1
    31       48           4
    31       52           0
    31       54           2
    31       73           0
    31       78           3
    31       90           2
    32        4           4
    32       12           0
    32       21           4
    32       27           0
    32       46           0
    32       67           3
    32       72           4
    32       81           1
    32       92           1
    32       96           2
    33        8           3
    33        9           2
    33       17           4
    33       45           2
    33       68           4
    33       70           0
    33       81           2
    33       86           2
    33       91           1
    33       98           0
    34       23           0
    34       25           2
    34       30           3
    34       32           2
    34       45           4
    34       48           4
    34       53           1
    34       64           0
    34       85           1
    34       94           0
    35       12           2
    35       18           4
    35       19           2
    35       24           2
    35       32           4
    35       33           0
    35       34           3
    35       36           4
    35       57           3
    35       85           2
    36        5           0
    36       22           2
    36       27           0
    36       33           2
    36       43           0
    36       54           0
    36       70           3
    36       84           2
    36       86           4
    36       89           3
    37        4           2
    37       23           1
    37       26           2
    37       39           3
    37       43           2
    37       52           0
    37       70           3
    37       75           1
    37       90           1
    37       93           1
    38        1           2
    38        9           1
    38       26           2
    38       33           3
    38       38           2
    38       47           3
    38       52           3
    38       59           0
    38       80           4
    38       93           0
    39       11           2
    39       14           0
    39       16           0
    39       30           1
    39       33           0
    39       41           0
    39       45           1
    39       51           3
    39       95           0
    39       98           4
    40        3           1
    40        7           2
    40       16           1
    40       17           4
    40       18           3
    40       42           3
    40       56           1
    40       61           0
    40       87           3
    40       94           2
    41       22           0
    41       23           2
    41       33           4
    41       36           2
    41       37           4
    41       57           3
    41       76           4
    41       80           2
    41       86           0
    41      100           0
    42       13           3
    42       18           0
    42       32           2
    42       54           4
    42       57           2
    42       61           3
    42       80           4
    42       81           1
    42       96           2
    42       99           0
    43       15           0
    43       17           3
    43       35           0
    43       42           1
    43       50           1
    43       56           1
    43       59           4
    43       66           2
    43       67           3
    43       85           4
    44        2           1
    44       14           4
    44       25           0
    44       29           0
    44       32           2
    44       55           0
    44       56           0
    44       71           4
    44       73           1
    44       91           3
    45        9           1
    45       13           0
    45       27           2
    45       37           1
    45       52           0
    45       72           4
    45       79           1
    45       88           1
    45       91           4
    45       92           2
    46       27           3
    46       33           0
    46       45           4
    46       55           0
    46       58           3
    46       59           1
    46       61           4
    46       64           2
    46       66           0
    46       80           0
    47        3           2
    47        9           4
    47       30           4
    47       38           2
    47       44           4
    47       59           4
    47       67           2
    47       89           4
    47       97           4
    47       98           4
    48       35           3
    48       36           4
    48       45           0
    48       51           2
    48       55           1
    48       61           0
    48       71           3
    48       90           0
    48       91           4
    48       99           1
    49        8           4
    49       13           1
    49       15           4
    49       43           2
    49       44           3
    49       45           1
    49       46           2
    49       61           3
    49       80           4
    49       90           0
    50       15           0
    50       18           1
    50       25           2
    50       27           2
    50       45           0
    50       48           0
    50       51           3
    50       62           2
    50       70           2
    50       91           3
    51        5           0
    51       24           4
    51       27           4
    51       35           2
    51       53           4
    51       56           2
    51       68           0
    51       70           3
    51       84           4
    51      100           2
    52        1           3
    52       16           4
    52       21           1
    52       27           1
    52       30           3
    52       42           1
    52       49           3
    52       60           4
    52       67           2
    52       71           3
    53       12           1
    53       29           0
    53       44           4
    53       45           2
    53       55           2
    53       56           1
    53       63           0
    53       76           2
    53       77           2
    53       98           4
    54        9           2
    54       12           4
    54       29           1
    54       30           0
    54       60           4
    54       74           4
    54       82           3
    54       84           4
    54       91           2
    54       95           2
    55        1           1
    55       26           3
    55       31           3
    55       60           2
    55       68           2
    55       72           2
    55       73           1
    55       79           1
    55       87           4
    55       93           2
    56       11           1
    56       31           0
    56       43           3
    56       65           3
    56       79           2
    56       86           1
    56       87           0
    56       88           3
    56       96           0
    56       97           0
    57       14           3
    57       16           3
    57       42           1
    57       50           3
    57       53           4
    57       60           3
    57       69           3
    57       70           0
    57       82           0
    57       91           3
    58        5           4
    58       12           1
    58       14           2
    58       30           3
    58       35           0
    58       36           4
    58       60           0
    58       71           3
    58       81           0
    58       84           4
    59        5           2
    59        7           1
    59        8           1
    59       13           0
    59       22           2
    59       34           4
    59       35           2
    59       61           1
    59       68           1
    59       97           2
    60        3           3
    60       13           4
    60       28           2
    60       41           2
    60       47           4
    60       50           4
    60       59           3
    60       61           3
    60       63           2
    60       74           4
    61        5           0
    61       18           0
    61       26           4
    61       28           2
    61       43           2
    61       52           4
    61       69           4
    61       79           2
    61       82           0
    61       96           0
    62        9           0
    62       10           3
    62       23           2
    62       32           1
    62       37           0
    62       45           2
    62       64           4
    62       76           2
    62       97           2
    62      100           3
    63        5           0
    63       28           4
    63       32           0
    63       43           4
    63       54           2
    63       63           0
    63       70           2
    63       75           2
    63       89           0
    63       90           0
    64       12           1
    64       23           3
    64       28           4
    64       29           3
    64       35           4
    64       37           2
    64       39           1
    64       48           4
    64       51           1
    64       82           3
    65        2           0
    65        3           1
    65       12           3
    65       28           4
    65       45           1
    65       56           0
    65       63           2
    65       69           4
    65       73           0
    65       95           4
    66        8           4
    66       13           1
    66       19           3
    66       51           4
    66       68           2
    66       69           0
    66       76           4
    66       81           4
    66       86           2
    66       89           1
    67        2           2
    67       15           1
    67       32           2
    67       38           0
    67       40           3
    67       46           4
    67       51           0
    67       68           0
    67       70           2
    67       79           1
    68        5           3
    68       12           3
    68       13           0
    68       21           3
    68       27           0
    68       47           3
    68       56           2
    68       79           4
    68       82           4
    68       93           2
    69        2           3
    69       29           1
    69       36           1
    69       41           3
    69       42           4
    69       52           1
    69       66           4
    69       69           3
    69       73           2
    69       94           2
    70       30           2
    70       32           2
    70       42           0
    70       43           2
    70       51           2
    70       59           0
    70       71           2
    70       74           3
    70       86           2
    70       91           3
    71        1           3
    71       17           0
    71       27           0
    71       33           2
    71       34           2
    71       39           1
    71       41           3
    71       48           1
    71       56           3
    71       60           3
    72        6           0
    72       17           1
    72       41           0
    72       45           4
    72       53           4
    72       61           2
    72       84           3
    72       85           0
    72       90           3
    72       96           3
    73        7           4
    73        8           0
    73       29           0
    73       37           4
    73       41           4
    73       44           3
    73       47           2
    73       69           1
    73       74           4
    73       76           3
    74       12           0
    74       13           4
    74       29           1
    74       47           4
    74       52           3
    74       56           4
    74       61           3
    74       83           4
    74       84           2
    74       85           3
    75        6           3
    75       45           3
    75       54           1
    75       55           3
    75       58           4
    75       72           1
    75       75           1
    75       79           0
    75       82           0
    75       86           3
    76       10           1
    76       20           1
    76       24           2
    76       25           4
    76       54           4
    76       55           2
    76       64           0
    76       71           2
    76       81           3
    76       84           0
    77        6           4
    77       34           2
    77       42           3
    77       54           0
    77       55           4
    77       65           0
    77       75           2
    77       94           3
    77       95           2
    77       98           1
    78        6           4
    78       10           4
    78       22           4
    78       28           1
    78       43           1
    78       61           4
    78       62           3
    78       74           0
    78       77           1
    78       80           0
    79        4           3
    79        7           0
    79       10           4
    79       21           2
    79       32           2
    79       37           1
    79       58           4
    79       66           1
    79       69           1
    79       79           4
    80        4           4
    80        9           3
    80       10           4
    80       17           3
    80       21           0
    80       34           0
    80       45           3
    80       56           1
    80       82           4
    80       89           3
    81       25           4
    81       37           1
    81       38           0
    81       50           3
    81       53           0
    81       57           3
    81       78           3
    81       79           2
    81       82           3
    81       90           3
    82        1           4
    82        3           1
    82        4           3
    82       13           2
    82       43           1
    82       45           4
    82       63           1
    82       65           1
    82       73           2
    82       95           0
    83        4           1
    83       17           4
    83       21           3
    83       39           2
    83       43           4
    83       53           0
    83       57           4
    83       69           0
    83       93           0
    83      100           0
    84       12           0
    84       23           2
    84       40           2
    84       42           0
    84       52           0
    84       67           1
    84       71           0
    84       76           0
    84       86           3
    84       89           4
    85       21           1
    85       58           1
    85       62           3
    85       64           3
    85       80           1
    85       82           1
    85       85           2
    85       90           3
    85       91           4
    85       97           3
    86        1           1
    86       13           2
    86       17           3
    86       52           4
    86       56           4
    86       62           1
    86       68           4
    86       80           1
    86       81           1
    86       88           2
    87       26           2
    87       30           1
    87       32           2
    87       44           2
    87       53           4
    87       55           3
    87       63           2
    87       72           2
    87       91           1
    87       92           0
    88        5           2
    88       12           4
    88       18           2
    88       34           0
    88       38           4
    88       44           3
    88       53           1
    88       54           3
    88       64           2
    88       77           4
    89       17           0
    89       33           4
    89       56           3
    89       57           4
    89       64           2
    89       67           2
    89       68           1
    89       89           2
    89       95           4
    89       96           0
    90        9           4
    90       20           1
    90       27           1
    90       30           0
    90       32           1
    90       41           0
    90       73           2
    90       82           0
    90       87           0
    90       98           4
    91       10           4
    91       22           4
    91       50           3
    91       51           1
    91       54           1
    91       77           3
    91       79           2
    91       80           4
    91       81           3
    91       90           2
    92       19           3
    92       33           1
    92       57           2
    92       61           0
    92       63           3
    92       66           2
    92       79           0
    92       87           0
    92       92           1
    92      100           3
    93        4           3
    93        5           1
    93       12           3
    93       30           3
    93       41           1
    93       48           1
    93       51           1
    93       78           3
    93       81           4
    93       89           4
    94       19           0
    94       35           2
    94       44           3
    94       47           3
    94       56           3
    94       58           1
    94       59           0
    94       75           2
    94       95           4
    94       97           0
    95        2           1
    95        5           1
    95       11           3
    95       24           0
    95       32           1
    95       42           1
    95       46           2
    95       58           2
    95       62           2
    95       69           4
    96        5           0
    96        8           3
    96       26           0
    96       41           0
    96       42           3
    96       66           1
    96       79           1
    96       80           3
    96       95           1
    96       98           4
    97       11           0
    97       13           1
    97       14           3
    97       15           4
    97       27           0
    97       47           4
    97       70           4
    97       74           1
    97       79           3
    97       80           2
    98       20           0
    98       33           0
    98       39           3
    98       44           0
    98       55           3
    98       62           2
    98       65           3
    98       72           1
    98       80           1
    98       91           2
    99        9           2
    99       25           3
    99       30           2
    99       35           4
    99       43           3
    99       44           1
    99       63           3
    99       70           0
    99       75           3
    99       92           0
   100        6           1
   100       17           3
   100       38           1
   100       43           0
   100       54           3
   100       73           1
   100       74           3
   100       77           4
   100       92           3
   100       96           3
